627966
37,23,74,70,85,47,51,80,103,67,20,30,102,33,27,92,59,71,14,38,99,91,105,83,49,78,25,12,93,44,10,87,35,53,62,52,68,8,48,104,106,19,13,9,50,76,89,54,61,22,4,43,24,72,17,64,65,36,56,98,88,97,6,100,84,11,73,7,1,16,60,21,86,94,96,58,66,28,3,55,46,32,69,5,90,45,77,42,34,95,41,63,75,82,57,26,2,81,39,18,101,40,79,29,31,15